
ACE v2.1 

  instance
    name:PyCSP

  Loading variables...

  Loading constraints...

  domains
    types:1  values:600  sizes:[5:120]
  variables
    count:120  arrays:1  degrees:[81:4,82:78,83:38]
  constraints
    count:2384  specific:44  groups:2  arities:[4:2340,6:39,40:3,80:2]
    distribution:[Cardinality:3,ConstraintIntension:2340,LexicographicLE:41]
    intStructures:(1,shared:2339)
    wck:1.50  cpu:2.109  mem:79M318

  Building solver... 

  solver
    guaranteedAC:true
    wck:1.57  cpu:2.125  mem:14M414

  preprocessing
    revisions:(9360,useless=9360)  values:600  unsat:false
    wck:0.031  cpu:2.156  mem:14M414

    run0  dpts:0..35  effs:810  fails:7  wrgs:43  wck:0.00

  global
    effs:810  revisions:(184730,useless=184641)
    stop:FULL_EXPLORATION  wrgs:43
    wck:1.72  cpu:2.281  mem:14M936

s UNSATISFIABLE

d WRONG DECISIONS 43
d FOUND SOLUTIONS 0
d COMPLETE EXPLORATION

c real time : 2.281
